(declare-fun var0 () String)
(assert (str.in.re var0 (re.++ (re.union (re.+ (re.union (re.union (re.* (re.union (re.union (re.+ (re.* (re.* (re.+ (re.union (re.* (re.union (re.+ (str.to.re "PPPPP")) (re.+ (str.to.re "QQQQQ")))) (re.union (re.+ (re.union (str.to.re "RRRR") (str.to.re "SSSS"))) (re.+ (re.union (str.to.re "TTTT") (str.to.re "UU"))))))))) (re.+ (re.union (re.+ (re.+ (re.* (re.union (re.* (re.+ (str.to.re "VVVVV"))) (re.union (re.* (str.to.re "WWWWW")) (re.+ (str.to.re "XXXXX"))))))) (re.* (re.+ (re.+ (re.+ (re.+ (re.union (str.to.re "YYY") (str.to.re "ZZ")))))))))) (re.* (re.+ (re.union (re.+ (re.* (re.* (re.+ (re.+ (re.+ (str.to.re "!!!!!"))))))) (re.union (re.+ (re.union (re.+ (re.* (re.union (str.to.re """""""") (str.to.re "####")))) (re.* (re.union (re.* (str.to.re "$$")) (re.union (str.to.re "%%") (str.to.re "&&")))))) (re.* (re.* (re.* (re.union (re.* (str.to.re "'''''")) (re.* (str.to.re "(((((")))))))))))) (re.union (re.+ (re.* (re.+ (re.union (re.* (re.+ (re.+ (re.+ (re.+ (re.+ (str.to.re "))))"))))))) (re.* (re.* (re.union (re.* (re.union (re.union (str.to.re "****") (str.to.re "++")) (re.* (str.to.re ",,,,")))) (re.* (re.union (re.union (str.to.re "---") (str.to.re "..")) (re.* (str.to.re "//"))))))))))) (re.union (re.* (re.union (re.* (re.union (re.union (re.union (re.+ (re.+ (re.+ (str.to.re "::")))) (re.* (re.union (re.union (str.to.re ";;") (str.to.re "<<<")) (re.* (str.to.re "==="))))) (re.+ (re.+ (re.+ (re.+ (str.to.re ">>>")))))) (re.+ (re.* (re.+ (re.+ (re.union (str.to.re "??") (str.to.re "@@@")))))))) (re.* (re.+ (re.* (re.union (re.+ (re.union (re.+ (str.to.re "[[[[[")) (re.* (str.to.re "\\\\")))) (re.+ (re.* (re.+ (str.to.re "]]]")))))))))) (re.+ (re.* (re.* (re.+ (re.+ (re.union (re.+ (re.* (re.* (str.to.re "^^^")))) (re.union (re.* (re.* (str.to.re "_____"))) (re.union (re.+ (str.to.re "`````")) (re.+ (str.to.re "{{{{"))))))))))))) (re.+ (re.union (re.union (re.* (re.union (re.union (re.* (re.union (re.union (re.union (re.* (re.union (str.to.re "||||") (str.to.re "}}}"))) (re.+ (re.+ (str.to.re "~~~~~")))) (re.* (re.union (re.+ (str.to.re "00")) (re.* (str.to.re "1111"))))) (re.* (re.* (re.union (re.* (str.to.re "222")) (re.+ (str.to.re "333"))))))) (re.* (re.union (re.* (re.+ (re.union (re.+ (str.to.re "44")) (re.+ (str.to.re "5555"))))) (re.+ (re.* (re.* (re.union (str.to.re "6666") (str.to.re "77")))))))) (re.* (re.* (re.+ (re.union (re.union (re.* (re.+ (str.to.re "88"))) (re.+ (re.* (str.to.re "9999")))) (re.+ (re.* (re.* (str.to.re "aa")))))))))) (re.union (re.+ (re.* (re.union (re.union (re.+ (re.* (re.* (re.* (str.to.re "bb"))))) (re.+ (re.+ (re.union (re.+ (str.to.re "ccc")) (re.* (str.to.re "ddd")))))) (re.union (re.+ (re.union (re.union (re.* (str.to.re "ee")) (re.union (str.to.re "fff") (str.to.re "gg"))) (re.union (re.+ (str.to.re "hhhhh")) (re.* (str.to.re "iiii"))))) (re.* (re.* (re.+ (re.union (str.to.re "jjj") (str.to.re "kk"))))))))) (re.* (re.+ (re.* (re.* (re.+ (re.union (re.+ (re.* (str.to.re "llll"))) (re.* (re.+ (str.to.re "mm"))))))))))) (re.* (re.+ (re.+ (re.* (re.* (re.* (re.* (re.union (re.* (re.union (str.to.re "nnnn") (str.to.re "oooo"))) (re.union (re.* (str.to.re "pppp")) (re.* (str.to.re "qq"))))))))))))))) (re.* (re.+ (re.union (re.* (re.union (re.union (re.union (re.union (re.union (re.union (re.+ (re.union (re.* (re.* (str.to.re "rr"))) (re.* (re.* (str.to.re "ssss"))))) (re.+ (re.+ (re.union (re.* (str.to.re "tt")) (re.+ (str.to.re "uuu")))))) (re.union (re.union (re.* (re.+ (re.* (str.to.re "vvvvv")))) (re.union (re.+ (re.* (str.to.re "wwww"))) (re.* (re.+ (str.to.re "xx"))))) (re.+ (re.union (re.+ (re.union (str.to.re "yyyy") (str.to.re "zz"))) (re.union (re.* (str.to.re "AAAAA")) (re.union (str.to.re "BB") (str.to.re "CC"))))))) (re.union (re.* (re.* (re.+ (re.* (re.* (str.to.re "DDDDD")))))) (re.* (re.+ (re.union (re.+ (re.+ (str.to.re "EEEE"))) (re.+ (re.union (str.to.re "FFF") (str.to.re "GGG")))))))) (re.union (re.* (re.union (re.* (re.union (re.* (re.+ (str.to.re "HHHH"))) (re.union (re.union (str.to.re "II") (str.to.re "JJJJJ")) (re.union (str.to.re "KKK") (str.to.re "LLLLL"))))) (re.* (re.+ (re.+ (re.union (str.to.re "MM") (str.to.re "NN"))))))) (re.* (re.* (re.union (re.union (re.union (re.union (str.to.re "OO") (str.to.re "PPPP")) (re.union (str.to.re "QQQQ") (str.to.re "RRRR"))) (re.* (re.union (str.to.re "SSSSS") (str.to.re "TTT")))) (re.* (re.union (re.+ (str.to.re "UU")) (re.+ (str.to.re "VVVVV"))))))))) (re.+ (re.+ (re.* (re.+ (re.+ (re.union (re.union (re.+ (str.to.re "WWW")) (re.union (str.to.re "XXX") (str.to.re "YYYY"))) (re.+ (re.union (str.to.re "ZZZZZ") (str.to.re "!!")))))))))) (re.+ (re.+ (re.+ (re.* (re.union (re.* (re.+ (re.+ (re.union (str.to.re """""""""") (str.to.re "##"))))) (re.* (re.+ (re.+ (re.union (str.to.re "$$$$$") (str.to.re "%%%%%")))))))))))) (re.union (re.+ (re.union (re.+ (re.* (re.+ (re.union (re.* (re.union (re.+ (re.* (str.to.re "&&&&"))) (re.+ (re.union (str.to.re "''''") (str.to.re "((("))))) (re.+ (re.+ (re.+ (re.+ (str.to.re "))"))))))))) (re.union (re.* (re.union (re.+ (re.union (re.* (re.+ (re.+ (str.to.re "****")))) (re.* (re.+ (re.* (str.to.re "++++")))))) (re.+ (re.* (re.union (re.+ (re.+ (str.to.re ",,"))) (re.union (re.* (str.to.re "---")) (re.union (str.to.re "..") (str.to.re "////")))))))) (re.+ (re.union (re.+ (re.* (re.+ (re.* (re.* (str.to.re ":::")))))) (re.union (re.+ (re.+ (re.+ (re.* (str.to.re ";;;"))))) (re.* (re.+ (re.union (re.union (str.to.re "<<<<") (str.to.re "===")) (re.* (str.to.re ">>>>"))))))))))) (re.* (re.* (re.+ (re.union (re.* (re.* (re.* (re.union (re.* (re.* (str.to.re "????"))) (re.union (re.union (str.to.re "@@") (str.to.re "[[[[")) (re.+ (str.to.re "\\\\"))))))) (re.+ (re.* (re.+ (re.* (re.* (re.union (str.to.re "]]]]]") (str.to.re "^^^^^")))))))))))))))) (re.union (re.union (re.* (re.* (re.+ (re.union (re.* (re.* (re.union (re.+ (re.* (re.+ (re.+ (re.union (re.+ (str.to.re "00000")) (re.* (str.to.re "111"))))))) (re.+ (re.union (re.union (re.+ (re.* (re.* (str.to.re "222")))) (re.+ (re.* (re.union (str.to.re "33") (str.to.re "44"))))) (re.* (re.union (re.+ (re.union (str.to.re "5555") (str.to.re "6666"))) (re.* (re.union (str.to.re "777") (str.to.re "88")))))))))) (re.union (re.+ (re.* (re.* (re.* (re.union (re.union (re.* (re.union (str.to.re "999") (str.to.re "aaa"))) (re.* (re.+ (str.to.re "bbb")))) (re.+ (re.+ (re.* (str.to.re "cc"))))))))) (re.union (re.* (re.+ (re.union (re.union (re.* (re.+ (re.union (str.to.re "dddd") (str.to.re "eeeee")))) (re.+ (re.union (re.* (str.to.re "fffff")) (re.+ (str.to.re "gg"))))) (re.+ (re.union (re.* (re.+ (str.to.re "hhhhh"))) (re.union (re.* (str.to.re "iiii")) (re.+ (str.to.re "jj")))))))) (re.* (re.+ (re.+ (re.* (re.union (re.* (re.union (str.to.re "kkkkk") (str.to.re "lll"))) (re.+ (re.+ (str.to.re "mmm")))))))))))))) (re.union (re.union (re.+ (re.* (re.union (re.union (re.+ (re.* (re.* (re.+ (re.union (re.union (re.union (str.to.re "nnnnn") (str.to.re "oooo")) (re.+ (str.to.re "ppp"))) (re.+ (re.+ (str.to.re "qq")))))))) (re.union (re.* (re.union (re.union (re.* (re.union (re.* (str.to.re "rrrr")) (re.union (str.to.re "sssss") (str.to.re "tttt")))) (re.union (re.union (re.union (str.to.re "uu") (str.to.re "vv")) (re.+ (str.to.re "wwww"))) (re.* (re.* (str.to.re "xxxx"))))) (re.+ (re.union (re.union (re.+ (str.to.re "yyyyy")) (re.* (str.to.re "zzz"))) (re.+ (re.union (str.to.re "AAA") (str.to.re "BBBBB"))))))) (re.union (re.+ (re.+ (re.union (re.+ (re.* (str.to.re "CCCC"))) (re.* (re.+ (str.to.re "DD")))))) (re.union (re.union (re.+ (re.* (re.+ (str.to.re "EEEE")))) (re.* (re.+ (re.* (str.to.re "FFFF"))))) (re.+ (re.+ (re.union (re.* (str.to.re "GG")) (re.* (str.to.re "HHHHH"))))))))) (re.* (re.* (re.* (re.union (re.union (re.union (re.* (re.union (str.to.re "III") (str.to.re "JJJ"))) (re.* (re.union (str.to.re "KKK") (str.to.re "LL")))) (re.union (re.union (re.union (str.to.re "MMMMM") (str.to.re "NNNN")) (re.* (str.to.re "OOO"))) (re.+ (re.* (str.to.re "PPPP"))))) (re.* (re.union (re.* (re.+ (str.to.re "QQ"))) (re.union (re.* (str.to.re "RRR")) (re.+ (str.to.re "SSSS")))))))))))) (re.union (re.+ (re.* (re.* (re.+ (re.+ (re.union (re.* (re.union (re.* (re.* (str.to.re "TTTT"))) (re.* (re.union (str.to.re "UU") (str.to.re "VVVV"))))) (re.union (re.union (re.* (re.+ (str.to.re "WWWWW"))) (re.+ (re.union (str.to.re "XXXX") (str.to.re "YYYY")))) (re.union (re.union (re.+ (str.to.re "ZZ")) (re.+ (str.to.re "!!!!!"))) (re.+ (re.* (str.to.re """"""))))))))))) (re.+ (re.* (re.+ (re.* (re.* (re.+ (re.* (re.+ (re.union (re.* (str.to.re "#####")) (re.* (str.to.re "$$$"))))))))))))) (re.* (re.+ (re.+ (re.* (re.* (re.union (re.union (re.+ (re.+ (re.union (re.+ (re.union (str.to.re "%%%") (str.to.re "&&&&"))) (re.* (re.* (str.to.re "'''''")))))) (re.union (re.union (re.+ (re.+ (re.union (str.to.re "(((") (str.to.re ")))))")))) (re.+ (re.+ (re.* (str.to.re "***"))))) (re.+ (re.+ (re.union (re.union (str.to.re "+++") (str.to.re ",,,,,")) (re.* (str.to.re "----"))))))) (re.* (re.union (re.union (re.union (re.+ (re.+ (str.to.re ".."))) (re.* (re.union (str.to.re "///") (str.to.re "::::")))) (re.union (re.* (re.* (str.to.re ";;;;;"))) (re.+ (re.union (str.to.re "<<<<") (str.to.re "====="))))) (re.union (re.* (re.+ (re.* (str.to.re ">>>>>")))) (re.* (re.union (re.* (str.to.re "??")) (re.union (str.to.re "@@") (str.to.re "[[["))))))))))))))) (re.+ (re.* (re.union (re.* (re.* (re.union (re.* (re.+ (re.union (re.union (re.union (re.union (re.+ (re.* (str.to.re "\\\\\\\\"))) (re.union (re.union (str.to.re "]]") (str.to.re "^^^^")) (re.+ (str.to.re "___")))) (re.+ (re.union (re.* (str.to.re "``")) (re.union (str.to.re "{{{{{") (str.to.re "||"))))) (re.+ (re.+ (re.union (re.+ (str.to.re "}}}}")) (re.+ (str.to.re "~~")))))) (re.union (re.+ (re.union (re.+ (re.union (str.to.re "0000") (str.to.re "11"))) (re.* (re.union (str.to.re "222") (str.to.re "333"))))) (re.* (re.+ (re.union (re.+ (str.to.re "444")) (re.+ (str.to.re "55"))))))))) (re.* (re.* (re.union (re.* (re.+ (re.* (re.* (re.* (str.to.re "66")))))) (re.+ (re.+ (re.union (re.union (re.+ (str.to.re "77")) (re.union (str.to.re "8888") (str.to.re "99"))) (re.union (re.* (str.to.re "aaa")) (re.union (str.to.re "bbbb") (str.to.re "cc")))))))))))) (re.+ (re.union (re.+ (re.union (re.union (re.union (re.* (re.* (re.+ (re.union (re.union (str.to.re "ddddd") (str.to.re "eee")) (re.union (str.to.re "fffff") (str.to.re "gg")))))) (re.+ (re.* (re.union (re.* (re.union (str.to.re "hhhh") (str.to.re "iiii"))) (re.union (re.* (str.to.re "jjjjj")) (re.* (str.to.re "kkkk"))))))) (re.+ (re.* (re.union (re.* (re.union (re.union (str.to.re "lll") (str.to.re "mm")) (re.+ (str.to.re "nn")))) (re.union (re.* (re.union (str.to.re "oo") (str.to.re "pp"))) (re.union (re.+ (str.to.re "qq")) (re.+ (str.to.re "rrrrr")))))))) (re.union (re.* (re.* (re.* (re.* (re.union (re.union (str.to.re "sssss") (str.to.re "tt")) (re.+ (str.to.re "uuu"))))))) (re.union (re.* (re.* (re.+ (re.+ (re.union (str.to.re "vvvv") (str.to.re "wwww")))))) (re.union (re.* (re.union (re.union (re.union (str.to.re "xxxxx") (str.to.re "yy")) (re.* (str.to.re "zz"))) (re.+ (re.union (str.to.re "AAA") (str.to.re "BBB"))))) (re.* (re.union (re.union (re.* (str.to.re "CCCC")) (re.+ (str.to.re "DDDD"))) (re.+ (re.union (str.to.re "EEEE") (str.to.re "FFFFF")))))))))) (re.+ (re.* (re.union (re.+ (re.union (re.* (re.+ (re.+ (re.* (str.to.re "GG"))))) (re.+ (re.union (re.+ (re.+ (str.to.re "HHHH"))) (re.+ (re.union (str.to.re "IIII") (str.to.re "JJJJJ"))))))) (re.union (re.+ (re.+ (re.union (re.* (re.union (str.to.re "KKKKK") (str.to.re "LLLL"))) (re.* (re.+ (str.to.re "MMM")))))) (re.* (re.+ (re.+ (re.union (re.* (str.to.re "NNNN")) (re.* (str.to.re "OOO")))))))))))))))))))
(assert (<= 15 (str.len var0)))
(check-sat)